data;
param T := 13750;
param N := 20;
param W := 
[0] 8922
[1] 2249
[2] 2545
[3] 4056
[4] 8904
[5] 3388
[6] 5976
[7] 5775
[8] 2172
[9] 2582
[10] 7719
[11] 5088
[12] 7811
[13] 390
[14] 9603
[15] 2542
[16] 6549
[17] 5050
[18] 8773
[19] 6040
;
end;